RSW03
Position Depot: Center
Horizon for Depot: Small
Position of customers: Random
Distribution of the demand: Small
Width of time windows: Wide
Distribution of the service: Small

VEHICLE 
NUMBER 	 CAPACITY 
 11 	 	 72 
 
CUSTOMER
CUST NO. 	 XCOORD.  	 YCOORD. 	 DEMAND 	 READY TIME 	 DUE DATE 	 SERVICE TIME 
 0 	 	 500 	 	 500 	 	 0 	 	 0 	 	 2003 	 	 0 
  1 	 	 32 	 	 971 	 	 6 	 	 855 	 	 1185 	 	 79 
  2 	 	 574 	 	 797 	 	 10 	 	 478 	 	 978 	 	 71 
  3 	 	 621 	 	 864 	 	 10 	 	 741 	 	 1154 	 	 65 
  4 	 	 849 	 	 983 	 	 10 	 	 1579 	 	 1970 	 	 79 
  5 	 	 490 	 	 506 	 	 5 	 	 199 	 	 569 	 	 62 
  6 	 	 102 	 	 868 	 	 7 	 	 842 	 	 1065 	 	 98 
  7 	 	 872 	 	 708 	 	 6 	 	 295 	 	 775 	 	 65 
  8 	 	 458 	 	 735 	 	 8 	 	 118 	 	 406 	 	 87 
  9 	 	 829 	 	 40 	 	 9 	 	 987 	 	 1347 	 	 80 
  10 	 	 758 	 	 687 	 	 10 	 	 1651 	 	 2003 	 	 85 
  11 	 	 260 	 	 926 	 	 7 	 	 855 	 	 1311 	 	 74 
  12 	 	 976 	 	 250 	 	 9 	 	 1568 	 	 1882 	 	 71 
  13 	 	 875 	 	 315 	 	 7 	 	 987 	 	 1350 	 	 86 
  14 	 	 389 	 	 267 	 	 6 	 	 1105 	 	 1347 	 	 91 
  15 	 	 507 	 	 169 	 	 7 	 	 879 	 	 1373 	 	 60 
  16 	 	 553 	 	 895 	 	 9 	 	 12 	 	 438 	 	 80 
  17 	 	 702 	 	 949 	 	 7 	 	 531 	 	 769 	 	 84 
  18 	 	 530 	 	 221 	 	 6 	 	 1226 	 	 1500 	 	 72 
  19 	 	 351 	 	 553 	 	 9 	 	 808 	 	 1287 	 	 60 
  20 	 	 920 	 	 914 	 	 6 	 	 1152 	 	 1450 	 	 87 
  21 	 	 209 	 	 211 	 	 9 	 	 -39 	 	 451 	 	 90 
  22 	 	 424 	 	 192 	 	 8 	 	 655 	 	 1024 	 	 93 
  23 	 	 862 	 	 29 	 	 7 	 	 1532 	 	 1823 	 	 58 
  24 	 	 236 	 	 916 	 	 8 	 	 909 	 	 1358 	 	 61 
  25 	 	 521 	 	 121 	 	 5 	 	 1437 	 	 1935 	 	 56 
  26 	 	 16 	 	 634 	 	 8 	 	 310 	 	 552 	 	 84 
  27 	 	 90 	 	 143 	 	 10 	 	 190 	 	 598 	 	 67 
  28 	 	 195 	 	 353 	 	 10 	 	 673 	 	 1123 	 	 100 
  29 	 	 474 	 	 615 	 	 8 	 	 710 	 	 1203 	 	 66 
  30 	 	 104 	 	 344 	 	 7 	 	 35 	 	 468 	 	 86 
  31 	 	 699 	 	 897 	 	 8 	 	 373 	 	 774 	 	 71 
  32 	 	 69 	 	 309 	 	 6 	 	 426 	 	 636 	 	 59 
  33 	 	 184 	 	 191 	 	 9 	 	 651 	 	 914 	 	 65 
  34 	 	 413 	 	 174 	 	 10 	 	 408 	 	 785 	 	 89 
  35 	 	 541 	 	 131 	 	 8 	 	 1732 	 	 1990 	 	 89 
  36 	 	 389 	 	 371 	 	 6 	 	 -65 	 	 187 	 	 63 
  37 	 	 704 	 	 775 	 	 8 	 	 162 	 	 376 	 	 86 
  38 	 	 375 	 	 362 	 	 8 	 	 103 	 	 373 	 	 89 
  39 	 	 768 	 	 169 	 	 6 	 	 210 	 	 648 	 	 64 
  40 	 	 542 	 	 185 	 	 8 	 	 303 	 	 750 	 	 64 
  41 	 	 400 	 	 948 	 	 5 	 	 241 	 	 504 	 	 61 
  42 	 	 51 	 	 239 	 	 7 	 	 519 	 	 773 	 	 76 
  43 	 	 483 	 	 142 	 	 10 	 	 55 	 	 394 	 	 86 
  44 	 	 365 	 	 710 	 	 6 	 	 918 	 	 1293 	 	 81 
  45 	 	 140 	 	 289 	 	 10 	 	 489 	 	 700 	 	 73 
  46 	 	 882 	 	 506 	 	 5 	 	 1398 	 	 1716 	 	 64 
  47 	 	 51 	 	 572 	 	 10 	 	 944 	 	 1294 	 	 61 
  48 	 	 834 	 	 496 	 	 7 	 	 1007 	 	 1242 	 	 62 
  49 	 	 126 	 	 189 	 	 9 	 	 171 	 	 535 	 	 58 
  50 	 	 517 	 	 918 	 	 10 	 	 234 	 	 460 	 	 62 
  51 	 	 172 	 	 861 	 	 6 	 	 1548 	 	 1825 	 	 92 
  52 	 	 229 	 	 546 	 	 10 	 	 1679 	 	 2003 	 	 65 
  53 	 	 735 	 	 759 	 	 9 	 	 355 	 	 819 	 	 89 
  54 	 	 961 	 	 433 	 	 6 	 	 1480 	 	 1969 	 	 59 
  55 	 	 387 	 	 600 	 	 10 	 	 1136 	 	 1635 	 	 98 
  56 	 	 128 	 	 945 	 	 10 	 	 241 	 	 638 	 	 74 
  57 	 	 515 	 	 159 	 	 10 	 	 -10 	 	 481 	 	 83 
  58 	 	 130 	 	 554 	 	 6 	 	 1215 	 	 1500 	 	 80 
  59 	 	 236 	 	 480 	 	 5 	 	 1638 	 	 2003 	 	 53 
  60 	 	 508 	 	 128 	 	 8 	 	 65 	 	 523 	 	 99 
  61 	 	 548 	 	 406 	 	 8 	 	 120 	 	 335 	 	 60 
  62 	 	 902 	 	 199 	 	 9 	 	 992 	 	 1319 	 	 67 
  63 	 	 639 	 	 389 	 	 7 	 	 -22 	 	 196 	 	 80 
  64 	 	 456 	 	 990 	 	 10 	 	 120 	 	 541 	 	 58 
  65 	 	 885 	 	 445 	 	 6 	 	 1625 	 	 1834 	 	 50 
  66 	 	 274 	 	 766 	 	 5 	 	 346 	 	 623 	 	 95 
  67 	 	 877 	 	 209 	 	 10 	 	 719 	 	 1212 	 	 67 
  68 	 	 659 	 	 163 	 	 9 	 	 1370 	 	 1668 	 	 67 
  69 	 	 381 	 	 398 	 	 9 	 	 -163 	 	 229 	 	 99 
  70 	 	 73 	 	 896 	 	 9 	 	 1298 	 	 1720 	 	 68 
  71 	 	 1 	 	 306 	 	 5 	 	 1703 	 	 2003 	 	 80 
  72 	 	 126 	 	 367 	 	 10 	 	 313 	 	 597 	 	 89 
  73 	 	 8 	 	 987 	 	 10 	 	 592 	 	 984 	 	 86 
  74 	 	 46 	 	 162 	 	 10 	 	 1527 	 	 2003 	 	 59 
  75 	 	 647 	 	 259 	 	 8 	 	 1037 	 	 1438 	 	 58 
  76 	 	 101 	 	 368 	 	 10 	 	 752 	 	 1077 	 	 67 
  77 	 	 619 	 	 190 	 	 6 	 	 705 	 	 1132 	 	 62 
  78 	 	 997 	 	 404 	 	 10 	 	 258 	 	 556 	 	 94 
  79 	 	 903 	 	 827 	 	 8 	 	 168 	 	 592 	 	 53 
  80 	 	 76 	 	 49 	 	 10 	 	 1643 	 	 1921 	 	 59 
  81 	 	 443 	 	 194 	 	 9 	 	 565 	 	 1034 	 	 56 
  82 	 	 328 	 	 446 	 	 10 	 	 1436 	 	 1932 	 	 74 
  83 	 	 290 	 	 704 	 	 6 	 	 749 	 	 971 	 	 52 
  84 	 	 774 	 	 334 	 	 7 	 	 546 	 	 1000 	 	 68 
  85 	 	 88 	 	 332 	 	 9 	 	 262 	 	 489 	 	 55 
  86 	 	 58 	 	 187 	 	 8 	 	 484 	 	 900 	 	 97 
  87 	 	 42 	 	 455 	 	 5 	 	 1554 	 	 2003 	 	 66 
  88 	 	 207 	 	 386 	 	 6 	 	 723 	 	 1037 	 	 97 
  89 	 	 880 	 	 375 	 	 8 	 	 1428 	 	 1678 	 	 94 
  90 	 	 481 	 	 627 	 	 8 	 	 510 	 	 827 	 	 53 
  91 	 	 79 	 	 271 	 	 10 	 	 34 	 	 527 	 	 63 
  92 	 	 443 	 	 219 	 	 9 	 	 1128 	 	 1428 	 	 52 
  93 	 	 67 	 	 315 	 	 10 	 	 1429 	 	 1663 	 	 89 
  94 	 	 3 	 	 543 	 	 10 	 	 1790 	 	 2003 	 	 98 
  95 	 	 693 	 	 827 	 	 6 	 	 782 	 	 1062 	 	 53 
  96 	 	 654 	 	 895 	 	 5 	 	 1175 	 	 1497 	 	 64 
  97 	 	 201 	 	 560 	 	 5 	 	 764 	 	 1088 	 	 77 
  98 	 	 234 	 	 663 	 	 6 	 	 635 	 	 864 	 	 83 
  99 	 	 562 	 	 364 	 	 8 	 	 1786 	 	 2003 	 	 72 
  100 	 	 764 	 	 8 	 	 6 	 	 735 	 	 1227 	 	 75 
 